100	102160

239 240
992 993
952 954
145 147
223 225
369 369
254 255
943 945
642 642
519 519
26 27
517 519
415 417
570 570
657 657
702 702
870 870
668 669
243 243
665 666
746 747
735 735
871 873
969 969
100 102
873 873
931 933
823 825
318 318
140 141
113 114
531 531
509 510
634 636
243 243
476 477
505 507
61 63
555 555
226 228
71 72
155 156
578 579
320 321
633 633
881 882
670 672
982 984
187 189
404 405
893 894
747 747
993 993
87 87
736 738
645 645
530 531
724 726
20 21
253 255
249 249
951 951
439 441
92 93
178 180
795 795
521 522
286 288
479 480
44 45
15 15
454 456
176 177
565 567
197 198
979 981
614 615
679 681
838 840
460 462
273 273
857 858
758 759
420 420
913 915
236 237
41 42
744 744
794 795
524 525
886 888
10 12
361 363
837 837
184 186
793 795
516 516
505 507
411 411
527 528
